p edge 270 820
e 1 7
e 1 10
e 1 13
e 1 19
e 1 20
e 1 23
e 1 26
e 1 33
e 1 64
e 1 76
e 1 193
e 1 224
e 1 239
e 1 253
e 2 6
e 2 51
e 2 79
e 2 86
e 2 109
e 2 146
e 2 148
e 2 157
e 2 185
e 2 216
e 3 4
e 3 16
e 3 19
e 3 37
e 3 46
e 3 49
e 3 57
e 3 65
e 3 75
e 3 91
e 3 120
e 3 144
e 3 213
e 4 16
e 4 35
e 4 37
e 4 40
e 4 46
e 4 49
e 4 57
e 4 65
e 4 75
e 4 144
e 4 213
e 5 30
e 5 36
e 5 43
e 5 61
e 5 76
e 5 90
e 5 155
e 5 163
e 5 195
e 5 214
e 6 11
e 6 12
e 6 13
e 6 25
e 6 53
e 6 55
e 6 58
e 6 59
e 6 118
e 6 161
e 6 185
e 6 233
e 7 10
e 7 13
e 7 16
e 7 17
e 7 20
e 7 33
e 7 37
e 7 41
e 7 54
e 7 58
e 7 86
e 7 89
e 7 173
e 7 242
e 8 22
e 8 27
e 8 28
e 8 32
e 8 55
e 8 62
e 8 67
e 8 78
e 8 129
e 8 166
e 8 251
e 8 252
e 9 27
e 9 31
e 9 46
e 9 75
e 9 95
e 9 100
e 9 189
e 9 192
e 9 194
e 9 260
e 10 18
e 10 21
e 10 26
e 10 28
e 10 64
e 10 77
e 10 158
e 10 191
e 10 253
e 11 25
e 11 50
e 11 55
e 11 105
e 11 138
e 11 140
e 11 150
e 11 161
e 11 186
e 11 199
e 11 228
e 11 266
e 11 267
e 12 13
e 12 35
e 12 68
e 12 103
e 12 127
e 12 141
e 12 142
e 12 156
e 12 159
e 12 179
e 13 20
e 13 33
e 13 41
e 13 45
e 13 46
e 13 47
e 13 81
e 13 84
e 13 155
e 13 259
e 14 25
e 14 33
e 14 34
e 14 39
e 14 42
e 14 66
e 14 85
e 14 93
e 14 105
e 14 119
e 14 183
e 14 209
e 14 256
e 15 19
e 15 28
e 15 62
e 15 72
e 15 110
e 15 116
e 15 117
e 16 33
e 16 37
e 16 49
e 16 65
e 16 81
e 16 91
e 16 120
e 16 173
e 16 254
e 17 22
e 17 54
e 17 58
e 17 98
e 17 123
e 17 141
e 17 176
e 18 24
e 18 26
e 18 34
e 18 35
e 18 41
e 18 45
e 18 79
e 18 86
e 18 99
e 18 110
e 18 168
e 18 183
e 19 29
e 19 36
e 19 40
e 19 54
e 19 84
e 19 120
e 19 224
e 20 21
e 20 33
e 20 41
e 20 47
e 20 103
e 20 106
e 20 190
e 20 201
e 20 265
e 21 30
e 21 36
e 21 63
e 21 74
e 21 77
e 21 103
e 21 106
e 21 113
e 21 201
e 22 43
e 22 48
e 22 56
e 22 62
e 22 87
e 22 98
e 22 137
e 23 68
e 23 71
e 23 78
e 23 94
e 23 101
e 23 108
e 23 111
e 23 116
e 23 133
e 23 139
e 23 202
e 23 238
e 23 239
e 23 246
e 24 35
e 24 39
e 24 41
e 24 45
e 24 48
e 24 49
e 24 79
e 24 82
e 24 84
e 24 86
e 24 91
e 24 114
e 24 123
e 24 208
e 24 220
e 25 34
e 25 55
e 25 104
e 25 108
e 25 124
e 25 128
e 25 139
e 25 202
e 25 209
e 25 211
e 25 225
e 26 63
e 26 64
e 26 71
e 26 78
e 26 119
e 26 138
e 26 167
e 26 253
e 27 32
e 27 40
e 27 69
e 27 75
e 27 78
e 27 92
e 27 107
e 27 120
e 27 189
e 27 260
e 28 39
e 28 92
e 28 110
e 28 112
e 28 159
e 28 190
e 29 41
e 29 43
e 29 47
e 29 60
e 29 80
e 29 170
e 29 235
e 30 36
e 30 61
e 31 38
e 31 44
e 31 196
e 32 67
e 32 78
e 32 97
e 32 137
e 32 179
e 32 251
e 32 252
e 33 39
e 33 47
e 33 54
e 33 119
e 33 215
e 33 254
e 33 256
e 34 51
e 34 88
e 34 168
e 34 183
e 34 209
e 35 41
e 35 61
e 35 74
e 35 79
e 35 82
e 35 86
e 35 103
e 35 142
e 35 249
e 36 43
e 36 44
e 36 50
e 36 74
e 36 83
e 36 113
e 37 53
e 37 70
e 37 89
e 37 90
e 37 109
e 37 126
e 38 44
e 38 100
e 38 157
e 38 174
e 38 196
e 39 40
e 39 45
e 39 92
e 39 119
e 39 130
e 39 190
e 39 256
e 40 54
e 40 84
e 40 92
e 40 119
e 41 47
e 41 79
e 41 81
e 41 82
e 41 84
e 41 86
e 41 170
e 42 66
e 42 80
e 42 105
e 42 206
e 42 241
e 42 245
e 43 44
e 43 90
e 43 93
e 43 137
e 43 163
e 44 100
e 44 174
e 44 229
e 45 79
e 45 91
e 45 130
e 46 81
e 46 91
e 46 92
e 46 95
e 46 110
e 47 81
e 47 84
e 47 135
e 47 170
e 47 215
e 48 84
e 48 100
e 48 148
e 48 206
e 48 208
e 49 54
e 49 58
e 49 65
e 49 66
e 49 82
e 49 91
e 50 80
e 50 83
e 50 85
e 50 105
e 50 113
e 50 140
e 50 163
e 50 186
e 50 199
e 51 54
e 51 218
e 52 64
e 52 94
e 52 98
e 52 104
e 52 108
e 52 124
e 52 134
e 53 89
e 53 109
e 53 118
e 53 146
e 53 181
e 53 182
e 54 58
e 54 66
e 54 84
e 55 59
e 55 111
e 55 129
e 55 139
e 55 149
e 55 219
e 56 87
e 56 99
e 56 102
e 56 118
e 57 75
e 57 118
e 57 138
e 57 144
e 57 230
e 57 270
e 58 65
e 58 66
e 60 80
e 60 121
e 60 165
e 60 263
e 61 66
e 61 74
e 61 77
e 61 173
e 61 261
e 61 262
e 62 195
e 62 227
e 63 78
e 63 95
e 63 103
e 63 106
e 63 131
e 63 138
e 63 142
e 63 167
e 63 250
e 64 97
e 64 129
e 64 169
e 64 178
e 64 236
e 64 240
e 64 253
e 65 66
e 65 75
e 65 91
e 65 120
e 66 173
e 66 261
e 66 262
e 67 243
e 67 244
e 67 251
e 67 252
e 68 94
e 68 101
e 68 128
e 68 129
e 69 107
e 69 177
e 69 223
e 70 83
e 70 90
e 70 96
e 70 107
e 70 126
e 70 132
e 70 136
e 70 143
e 71 88
e 71 94
e 71 101
e 71 108
e 71 111
e 71 139
e 71 246
e 72 76
e 72 121
e 72 175
e 73 106
e 73 133
e 73 237
e 74 113
e 74 249
e 75 144
e 75 189
e 75 260
e 76 83
e 76 171
e 76 175
e 77 158
e 78 131
e 78 133
e 78 138
e 78 167
e 78 238
e 79 86
e 79 110
e 79 146
e 79 157
e 79 216
e 80 105
e 80 122
e 80 140
e 80 163
e 80 186
e 81 84
e 81 158
e 82 86
e 82 91
e 82 114
e 82 135
e 83 113
e 83 132
e 83 136
e 83 143
e 83 171
e 84 206
e 84 208
e 85 93
e 85 126
e 85 136
e 85 143
e 85 151
e 85 152
e 85 169
e 85 257
e 85 258
e 87 109
e 88 89
e 89 109
e 90 96
e 90 126
e 90 143
e 90 147
e 90 163
e 91 92
e 91 120
e 92 190
e 93 136
e 93 143
e 93 145
e 93 178
e 94 101
e 94 104
e 94 108
e 94 111
e 94 116
e 94 124
e 94 128
e 94 139
e 94 202
e 94 246
e 95 103
e 95 142
e 95 164
e 95 174
e 95 184
e 95 268
e 96 143
e 96 147
e 96 231
e 96 232
e 97 111
e 97 137
e 97 169
e 97 178
e 97 236
e 98 134
e 98 198
e 99 102
e 100 148
e 100 174
e 100 194
e 101 108
e 101 111
e 101 128
e 101 139
e 101 149
e 101 198
e 101 246
e 102 117
e 102 136
e 103 106
e 103 142
e 103 201
e 104 108
e 104 124
e 104 128
e 104 139
e 104 202
e 104 211
e 104 225
e 105 140
e 105 163
e 105 186
e 105 199
e 106 201
e 108 111
e 108 124
e 108 139
e 108 211
e 108 246
e 111 128
e 111 139
e 111 149
e 111 246
e 112 135
e 112 226
e 113 153
e 113 156
e 114 135
e 114 204
e 114 205
e 114 217
e 115 127
e 115 153
e 115 196
e 116 117
e 116 202
e 117 136
e 117 269
e 118 144
e 118 230
e 119 256
e 121 255
e 121 263
e 122 125
e 122 126
e 122 132
e 122 140
e 122 145
e 122 147
e 122 151
e 122 152
e 122 186
e 122 207
e 123 141
e 123 220
e 124 139
e 124 149
e 124 211
e 124 264
e 125 126
e 125 145
e 125 147
e 125 151
e 125 152
e 125 154
e 125 200
e 125 212
e 126 145
e 126 147
e 126 151
e 126 152
e 126 169
e 126 257
e 126 258
e 127 153
e 127 187
e 127 188
e 127 196
e 128 149
e 128 202
e 128 225
e 129 240
e 130 172
e 130 176
e 130 177
e 130 184
e 130 187
e 130 188
e 131 150
e 131 250
e 132 136
e 132 143
e 132 171
e 132 207
e 133 237
e 133 238
e 134 234
e 135 226
e 136 143
e 138 150
e 138 167
e 138 270
e 139 149
e 139 211
e 139 246
e 140 162
e 140 186
e 140 199
e 141 189
e 143 147
e 144 230
e 145 147
e 145 151
e 145 152
e 145 154
e 145 162
e 145 178
e 146 157
e 146 181
e 146 182
e 146 216
e 147 151
e 147 152
e 147 154
e 147 162
e 149 211
e 149 264
e 151 152
e 151 154
e 151 162
e 151 169
e 151 257
e 151 258
e 152 154
e 152 162
e 152 169
e 152 257
e 152 258
e 153 156
e 153 196
e 153 203
e 154 162
e 155 214
e 155 259
e 156 203
e 157 216
e 159 179
e 160 197
e 161 228
e 161 233
e 162 199
e 164 197
e 165 200
e 165 207
e 165 247
e 165 248
e 166 210
e 168 183
e 169 178
e 169 236
e 169 257
e 169 258
e 172 177
e 172 187
e 172 188
e 173 261
e 173 262
e 174 184
e 174 268
e 176 184
e 177 187
e 177 188
e 178 236
e 180 203
e 181 182
e 184 268
e 186 199
e 187 188
e 189 260
e 190 265
e 200 207
e 200 212
e 200 247
e 200 248
e 202 225
e 204 205
e 204 217
e 205 217
e 206 208
e 206 241
e 207 247
e 207 248
e 211 264
e 221 222
e 231 232
e 243 244
e 247 248
e 251 252
e 257 258
e 261 262
e 266 267
